Route #1: 1 15 18 19 45 36 33 37 8 1
Route #2: 1 24 44 32 6 2 7 23 1
Route #3: 1 42 3 11 34 47 22 1
Route #4: 1 13 26 20 39 38 4 41 1
Route #5: 1 28 16 9 40 27 21 43 35 1
Route #6: 1 46 12 14 10 25 5 31 30 29 1
Route #7: 1 48 17 1
cost 1251
